%SETS
JOBS     = 1..5;
MACHINES = 1..10;
SPEED    = 3;

time        = array3d(JOBS,MACHINES,1..SPEED,[25, 6, 4, 19, 4, 3, 3, 1, 1, 18, 4, 3, 5, 1, 1, 39, 9, 7, 49, 12, 8, 17, 4, 3, 48, 11, 8, 2, 1, 1, 18, 4, 3, 1, 1, 1, 14, 3, 2, 2, 1, 1, 3, 1, 1, 23, 5, 4, 6, 1, 1, 2, 1, 1, 6, 1, 1, 11, 2, 2, 16, 3, 2, 5, 1, 1, 26, 6, 4, 17, 4, 3, 18, 4, 3, 12, 3, 2, 40, 10, 7, 22, 5, 4, 4, 1, 1, 31, 7, 5, 86, 21, 15, 17, 4, 3, 57, 13, 10, 10, 2, 1, 21, 5, 3, 14, 3, 2, 14, 3, 2, 38, 9, 6, 19, 4, 3, 79, 19, 14, 20, 4, 3, 2, 1, 1, 11, 2, 2, 49, 12, 8, 13, 3, 2, 1, 1, 1, 7, 1, 1, 1, 1, 1, 131, 32, 23, 91, 22, 16]);
energy      = array3d(JOBS,MACHINES,1..SPEED,[77, 94, 96, 82, 96, 97, 97, 99, 99, 83, 96, 97, 95, 99, 99, 67, 91, 93, 61, 88, 92, 84, 96, 97, 61, 89, 92, 98, 99, 99, 83, 96, 97, 99, 99, 99, 86, 97, 98, 98, 99, 99, 97, 99, 99, 79, 95, 96, 94, 99, 99, 98, 99, 99, 94, 99, 99, 89, 98, 98, 85, 97, 98, 95, 99, 99, 77, 94, 96, 84, 96, 97, 83, 96, 97, 88, 97, 98, 67, 90, 93, 80, 95, 96, 96, 99, 99, 73, 93, 95, 42, 81, 86, 84, 96, 97, 56, 87, 90, 90, 98, 99, 81, 95, 97, 86, 97, 98, 86, 97, 98, 68, 91, 94, 82, 96, 97, 45, 82, 86, 81, 96, 97, 98, 99, 99, 89, 98, 98, 61, 88, 92, 87, 97, 98, 99, 99, 99, 93, 99, 99, 99, 99, 99, 26, 72, 79, 40, 80, 85]);
precedence  = array2d(JOBS,MACHINES,[8, 3, 1, 9, 0, 6, 4, 2, 7, 5, 9, 0, 7, 3, 5, 6, 4, 2, 8, 1, 9, 2, 4, 5, 3, 6, 0, 8, 1, 7, 4, 8, 5, 1, 2, 7, 0, 3, 6, 9, 7, 4, 2, 9, 6, 5, 0, 1, 8, 3]);
releaseDate = array2d(JOBS,MACHINES,[64, 10, 1, 73, 0, 33, 15, 2, 53, 32, 29, 10, 23, 14, 17, 18, 16, 13, 28, 11, 115, 75, 81, 87, 76, 91, 60, 106, 74, 94, 63, 117, 96, 43, 45, 114, 40, 51, 110, 121, 142, 136, 62, 210, 138, 137, 60, 61, 146, 65]);
dueDate     = array2d(JOBS,MACHINES,[73, 15, 2, 77, 1, 53, 32, 10, 64, 33, 33, 11, 28, 16, 18, 23, 17, 14, 29, 13, 119, 76, 87, 91, 81, 94, 74, 115, 75, 106, 96, 121, 110, 45, 51, 117, 43, 63, 114, 140, 146, 137, 65, 223, 142, 138, 61, 62, 210, 136]);